
******************************************************************************
This program contains Ipopt, a library for large-scale nonlinear optimization.
 Ipopt is released as open source code under the Eclipse Public License (EPL).
         For more information visit http://projects.coin-or.org/Ipopt

This version of Ipopt was compiled from source code available at
    https://github.com/IDAES/Ipopt as part of the Institute for the Design of
    Advanced Energy Systems Process Systems Engineering Framework (IDAES PSE
    Framework) Copyright (c) 2018-2019. See https://github.com/IDAES/idaes-pse.

This version of Ipopt was compiled using HSL, a collection of Fortran codes
    for large-scale scientific computation.  All technical papers, sales and
    publicity material resulting from use of the HSL codes within IPOPT must
    contain the following acknowledgement:
        HSL, a collection of Fortran codes for large-scale scientific
        computation. See http://www.hsl.rl.ac.uk.
******************************************************************************

This is Ipopt version 3.13.2, running with linear solver ma27.

Number of nonzeros in equality constraint Jacobian...:      958
Number of nonzeros in inequality constraint Jacobian.:        0
Number of nonzeros in Lagrangian Hessian.............:      832

Total number of variables............................:      416
                     variables with only lower bounds:      128
                variables with lower and upper bounds:      224
                     variables with only upper bounds:        0
Total number of equality constraints.................:      415
Total number of inequality constraints...............:        0
        inequality constraints with only lower bounds:        0
   inequality constraints with lower and upper bounds:        0
        inequality constraints with only upper bounds:        0

iter    objective    inf_pr   inf_du lg(mu)  ||d||  lg(rg) alpha_du alpha_pr  ls
   0  0.0000000e+00 2.20e-01 2.84e-14  -1.0 0.00e+00    -  0.00e+00 0.00e+00   0
   1  3.0188350e-01 5.31e-03 3.05e+02  -1.0 4.89e+04    -  9.22e-01 9.90e-01h  1
   2  3.0337836e-01 5.78e-05 3.12e+00  -1.0 1.58e+03    -  9.87e-01 9.90e-01h  1
   3  3.0221477e-01 6.67e-07 3.01e+01  -1.0 4.07e+02    -  9.90e-01 9.90e-01h  1
   4  3.0212178e-01 6.65e-07 9.85e+06  -1.0 8.66e+03    -  9.89e-01 3.87e-03h  9
   5  3.0200616e-01 6.64e-07 1.97e+07  -1.0 1.08e+04    -  9.90e-01 3.87e-03h  9
   6  3.0189187e-01 6.62e-07 2.97e+07  -1.0 1.08e+04    -  9.99e-01 3.87e-03h  9
   7  3.0177897e-01 6.60e-07 3.96e+07  -1.0 1.08e+04    -  1.00e+00 3.87e-03h  9
   8  3.0166743e-01 6.58e-07 4.96e+07  -1.0 1.07e+04    -  1.00e+00 3.87e-03h  9
   9  3.0155726e-01 6.56e-07 5.96e+07  -1.0 1.07e+04    -  1.00e+00 3.87e-03h  9
iter    objective    inf_pr   inf_du lg(mu)  ||d||  lg(rg) alpha_du alpha_pr  ls
  10  3.0144843e-01 6.55e-07 6.95e+07  -1.0 1.07e+04    -  1.00e+00 3.87e-03h  9
  11  3.0134094e-01 6.53e-07 7.95e+07  -1.0 1.06e+04    -  1.00e+00 3.87e-03h  9
  12  3.0123477e-01 6.51e-07 8.95e+07  -1.0 1.06e+04    -  1.00e+00 3.87e-03h  9
  13  3.0112992e-01 6.49e-07 9.94e+07  -1.0 1.05e+04    -  1.00e+00 3.87e-03h  9
  14  3.0381104e-01 8.31e-05 1.10e+06  -1.0 1.05e+04    -  1.00e+00 9.90e-01w  1
  15  3.0430436e-01 8.48e-07 1.04e+07  -1.0 1.51e+02    -  1.00e+00 9.90e-01w  1
  16  3.0430941e-01 8.48e-09 1.04e+09  -1.0 1.53e+00    -  1.00e+00 9.90e-01h  1
  17  3.0430946e-01 8.28e-11 1.04e+11  -1.0 1.53e-02    -  1.00e+00 9.90e-01h  1
In iteration 17, 32 Slacks too small, adjusting variable bounds
  18  3.0430946e-01 2.64e-11 1.04e+13  -1.0 1.53e-04    -  1.00e+00 9.90e-01h  1
  19  3.0430946e-01 9.84e-12 1.00e-06  -1.0 5.17e-06    -  1.00e+00 1.00e+00h  1
iter    objective    inf_pr   inf_du lg(mu)  ||d||  lg(rg) alpha_du alpha_pr  ls
  20  2.9509137e-01 8.07e-12 2.91e+09  -9.0 5.79e+03    -  1.00e+00 1.00e+00F  1
  21  2.9509106e-01 5.46e-11 2.05e-07  -9.0 3.39e+01    -  1.00e+00 1.00e+00H  1

Number of Iterations....: 21

                                   (scaled)                 (unscaled)
Objective...............:   2.9509105976555150e-01    2.9509105976555150e-01
Dual infeasibility......:   2.0526931621134281e-07    2.0526931621134281e-07
Constraint violation....:   5.4587445674769697e-11    5.4587445674769697e-11
Complementarity.........:   3.0899632081149794e-08    3.0899632081149794e-08
Overall NLP error.......:   3.3293441818571351e-09    2.0526931621134281e-07


Number of objective function evaluations             = 126
Number of objective gradient evaluations             = 22
Number of equality constraint evaluations            = 126
Number of inequality constraint evaluations          = 0
Number of equality constraint Jacobian evaluations   = 22
Number of inequality constraint Jacobian evaluations = 0
Number of Lagrangian Hessian evaluations             = 21
Total CPU secs in IPOPT (w/o function evaluations)   =      0.050
Total CPU secs in NLP function evaluations           =      1.121

EXIT: Optimal Solution Found.
